db/data/2871918471143503133661187689136119500.z3.out
solvers/z3/run.sh: line 2: 125019 Killed                  z3 -smt2 $1
-------------------
921.314129756
